<?xml version = "1.0" encoding="UTF-8" standalone="yes"?>
<CPLEXSolution version="1.2">
 <header
   problemName="../models/inception-v3/redmi/ilp/subgraphs-Mixed_6a.lp"
   solutionName="incumbent"
   solutionIndex="-1"
   objectiveValue="51.780300000000011"
   solutionTypeValue="3"
   solutionTypeString="primal"
   solutionStatusValue="101"
   solutionStatusString="integer optimal solution"
   solutionMethodString="mip"
   primalFeasible="1"
   dualFeasible="1"
   MIPNodes="0"
   MIPIterations="12"
   writeLevel="1"/>
 <quality
   epInt="1.0000000000000001e-05"
   epRHS="9.9999999999999995e-07"
   maxIntInfeas="0"
   maxPrimalInfeas="0"
   maxX="1050.1017999999999"
   maxSlack="2998.5630000000001"/>
 <linearConstraints>
  <constraint name="c1" index="0" slack="-1051.7802999999999"/>
  <constraint name="c2" index="1" slack="-37.941199999999981"/>
  <constraint name="c3" index="2" slack="-51.780300000000011"/>
  <constraint name="c4" index="3" slack="-1036.5538999999999"/>
  <constraint name="c5" index="4" slack="-51.780300000000011"/>
  <constraint name="c6" index="5" slack="-996.67989999999998"/>
  <constraint name="c7" index="6" slack="-1051.7802999999999"/>
  <constraint name="c8" index="7" slack="-0.44010000000002947"/>
  <constraint name="c9" index="8" slack="-1051.7802999999999"/>
  <constraint name="c10" index="9" slack="-37.169599999999946"/>
  <constraint name="c11" index="10" slack="-51.780300000000011"/>
  <constraint name="c12" index="11" slack="-1050.3433"/>
  <constraint name="c13" index="12" slack="-1051.7802999999999"/>
  <constraint name="c14" index="13" slack="0"/>
  <constraint name="c15" index="14" slack="-51.780300000000011"/>
  <constraint name="c16" index="15" slack="-1.1368683772161603e-13"/>
  <constraint name="c17" index="16" slack="0"/>
  <constraint name="c18" index="17" slack="0"/>
  <constraint name="c19" index="18" slack="0"/>
  <constraint name="c20" index="19" slack="0"/>
  <constraint name="c21" index="20" slack="-999"/>
  <constraint name="c22" index="21" slack="0"/>
  <constraint name="c23" index="22" slack="-2944.8995999999997"/>
  <constraint name="c24" index="23" slack="-999"/>
  <constraint name="c25" index="24" slack="0"/>
  <constraint name="c26" index="25" slack="-2948.6597999999999"/>
  <constraint name="c27" index="26" slack="0"/>
  <constraint name="c28" index="27" slack="-999"/>
  <constraint name="c29" index="28" slack="-985.38929999999993"/>
  <constraint name="c30" index="29" slack="-998"/>
  <constraint name="c31" index="30" slack="-1"/>
  <constraint name="c32" index="31" slack="-2998.5630000000001"/>
  <constraint name="c33" index="32" slack="-37.501099999999951"/>
  <constraint name="c34" index="33" slack="-1036.1138000000001"/>
  <constraint name="c35" index="34" slack="-1036.2626999999998"/>
  <constraint name="c36" index="35" slack="-2034.8753999999999"/>
  <constraint name="c37" index="36" slack="-999"/>
  <constraint name="c38" index="37" slack="0"/>
  <constraint name="c39" index="38" slack="-1986.1609000000001"/>
  <constraint name="c40" index="39" slack="-999"/>
  <constraint name="c41" index="40" slack="0"/>
  <constraint name="c42" index="41" slack="-1984.7736"/>
  <constraint name="c43" index="42" slack="-999"/>
  <constraint name="c44" index="43" slack="0"/>
  <constraint name="c45" index="44" slack="-1985.3893"/>
  <constraint name="c46" index="45" slack="-999"/>
  <constraint name="c47" index="46" slack="0"/>
  <constraint name="c48" index="47" slack="-2998.5630000000001"/>
  <constraint name="c49" index="48" slack="-996.23979999999995"/>
  <constraint name="c50" index="49" slack="0"/>
  <constraint name="c51" index="50" slack="-1995.0013999999999"/>
  <constraint name="c52" index="51" slack="-998.76159999999993"/>
  <constraint name="c53" index="52" slack="0"/>
  <constraint name="c54" index="53" slack="-999"/>
  <constraint name="c55" index="54" slack="0"/>
  <constraint name="c56" index="55" slack="-998"/>
  <constraint name="c57" index="56" slack="-1"/>
  <constraint name="c58" index="57" slack="-1984.7736"/>
  <constraint name="c59" index="58" slack="-999"/>
  <constraint name="c60" index="59" slack="0"/>
  <constraint name="c61" index="60" slack="-2958.7387000000003"/>
  <constraint name="c62" index="61" slack="-999"/>
  <constraint name="c63" index="62" slack="0"/>
  <constraint name="c64" index="63" slack="-1948.6597999999999"/>
  <constraint name="c65" index="64" slack="-36.729499999999916"/>
  <constraint name="c66" index="65" slack="-1049.9032"/>
  <constraint name="c67" index="66" slack="-1035.4910999999997"/>
  <constraint name="c68" index="67" slack="-2048.6648"/>
 </linearConstraints>
 <variables>
  <variable name="tt" index="0" value="51.780300000000011"/>
  <variable name="s_1_1" index="1" value="1"/>
  <variable name="t_1_1" index="2" value="0"/>
  <variable name="s_2_1" index="3" value="-0"/>
  <variable name="t_2_1" index="4" value="0"/>
  <variable name="s_1_2" index="5" value="0"/>
  <variable name="t_1_2" index="6" value="0"/>
  <variable name="s_2_2" index="7" value="1"/>
  <variable name="t_2_2" index="8" value="0"/>
  <variable name="s_1_3" index="9" value="1"/>
  <variable name="t_1_3" index="10" value="13.8391"/>
  <variable name="s_2_3" index="11" value="-0"/>
  <variable name="t_2_3" index="12" value="0"/>
  <variable name="s_1_4" index="13" value="1"/>
  <variable name="t_1_4" index="14" value="51.340199999999982"/>
  <variable name="s_2_4" index="15" value="-0"/>
  <variable name="t_2_4" index="16" value="1050.1017999999999"/>
  <variable name="r_1_1_2" index="17" value="1"/>
  <variable name="u_1_1_2" index="18" value="-0"/>
  <variable name="r_2_1_2" index="19" value="1"/>
  <variable name="u_2_1_2" index="20" value="-0"/>
  <variable name="r_1_1_3" index="21" value="-0"/>
  <variable name="u_1_1_3" index="22" value="-0"/>
  <variable name="r_2_1_3" index="23" value="1"/>
  <variable name="u_2_1_3" index="24" value="-0"/>
  <variable name="r_1_2_3" index="25" value="1"/>
  <variable name="u_1_2_3" index="26" value="1"/>
  <variable name="r_2_2_3" index="27" value="1"/>
  <variable name="u_2_2_3" index="28" value="-0"/>
 </variables>
</CPLEXSolution>
